42307.5
41806
41317.7
41317.7
41317.7
40219.2
40219.2
39996.1
39833.1
39833.1
39367.9
39367.9
38641.7
38582.6
37738.2
37738.2
37738.2
37738.2
37738.2
37738.2
37345.6
37345.6
37345.6
35389.6
35389.6
35389.6
35389.6
35247.4
34194.4
34194.4
34194.4
34194.4
34194.4
34194.4
34194.4
33915.7
33915.7
33915.7
33915.7
33915.7
33915.7
33633.9
33633.9
33633.9
32952.7
32952.7
32952.7
32952.7
32952.7
32745.7
32745.7
32745.7
32745.7
32723.1
32723.1
32723.1
32413.9
32413.9
31682.5
31569.8
31569.8
31569.8
31432.9
31386.2
30899.3
30670.3
30670.3
30670.3
30670.3
30670.3
30670.3
30670.3
30670.3
30670.3
30670.3
30670.3
30670.3
30605.6
30605.6
30605.6
30559.1
30462.1
30462.1
30462.1
29873
29873
29873
29873
29873
29873
29873
29715.8
29196.9
29196.9
29196.9
29196.9
29196.9
29196.9
29196.9
29196.9
